p cnf 655 2225
c p weight 262 -1 0
c p weight -262 1 0
c p weight 264 6.12323399573676603586882014729198302312846062338790031898128063403419218957424163818359375E-17 0
c p weight -264 1 0
c p weight 265 1 0
c p weight -265 1 0
c p weight 266 -1 0
c p weight -266 1 0
c p weight 268 -1 0
c p weight -268 1 0
c p weight 271 -1 0
c p weight -271 1 0
c p weight 274 -1 0
c p weight -274 1 0
c p weight 277 -1 0
c p weight -277 1 0
c p weight 280 -1 0
c p weight -280 1 0
c p weight 283 -1 0
c p weight -283 1 0
c p weight 286 -1 0
c p weight -286 1 0
c p weight 289 -1 0
c p weight -289 1 0
c p weight 292 -1 0
c p weight -292 1 0
c p weight 295 -1 0
c p weight -295 1 0
c p weight 298 -1 0
c p weight -298 1 0
c p weight 301 -1 0
c p weight -301 1 0
c p weight 304 -1 0
c p weight -304 1 0
c p weight 307 -1 0
c p weight -307 1 0
c p weight 310 -1 0
c p weight -310 1 0
c p weight 313 -1 0
c p weight -313 1 0
c p weight 316 -1 0
c p weight -316 1 0
c p weight 319 -1 0
c p weight -319 1 0
c p weight 322 -1 0
c p weight -322 1 0
c p weight 325 -1 0
c p weight -325 1 0
c p weight 328 -1 0
c p weight -328 1 0
c p weight 331 -1 0
c p weight -331 1 0
c p weight 334 -1 0
c p weight -334 1 0
c p weight 337 -1 0
c p weight -337 1 0
c p weight 340 -1 0
c p weight -340 1 0
c p weight 343 -1 0
c p weight -343 1 0
c p weight 346 -1 0
c p weight -346 1 0
c p weight 349 -1 0
c p weight -349 1 0
c p weight 352 -1 0
c p weight -352 1 0
c p weight 355 -1 0
c p weight -355 1 0
c p weight 358 -1 0
c p weight -358 1 0
c p weight 361 -1 0
c p weight -361 1 0
c p weight 364 -1 0
c p weight -364 1 0
c p weight 367 -1 0
c p weight -367 1 0
c p weight 370 -1 0
c p weight -370 1 0
c p weight 373 -1 0
c p weight -373 1 0
c p weight 376 -1 0
c p weight -376 1 0
c p weight 379 -1 0
c p weight -379 1 0
c p weight 382 -1 0
c p weight -382 1 0
c p weight 385 -1 0
c p weight -385 1 0
c p weight 388 -1 0
c p weight -388 1 0
c p weight 391 -1 0
c p weight -391 1 0
c p weight 394 -1 0
c p weight -394 1 0
c p weight 397 -1 0
c p weight -397 1 0
c p weight 400 -1 0
c p weight -400 1 0
c p weight 403 -1 0
c p weight -403 1 0
c p weight 406 -1 0
c p weight -406 1 0
c p weight 409 -1 0
c p weight -409 1 0
c p weight 412 -1 0
c p weight -412 1 0
c p weight 415 -1 0
c p weight -415 1 0
c p weight 418 -1 0
c p weight -418 1 0
c p weight 421 -1 0
c p weight -421 1 0
c p weight 424 -1 0
c p weight -424 1 0
c p weight 427 -1 0
c p weight -427 1 0
c p weight 430 -1 0
c p weight -430 1 0
c p weight 433 -1 0
c p weight -433 1 0
c p weight 436 -1 0
c p weight -436 1 0
c p weight 439 -1 0
c p weight -439 1 0
c p weight 442 -1 0
c p weight -442 1 0
c p weight 445 -1 0
c p weight -445 1 0
c p weight 448 -1 0
c p weight -448 1 0
c p weight 451 -1 0
c p weight -451 1 0
c p weight 454 -1 0
c p weight -454 1 0
c p weight 457 -1 0
c p weight -457 1 0
c p weight 460 -1 0
c p weight -460 1 0
c p weight 463 -1 0
c p weight -463 1 0
c p weight 466 -1 0
c p weight -466 1 0
c p weight 469 -1 0
c p weight -469 1 0
c p weight 472 -1 0
c p weight -472 1 0
c p weight 475 -1 0
c p weight -475 1 0
c p weight 478 -1 0
c p weight -478 1 0
c p weight 481 -1 0
c p weight -481 1 0
c p weight 484 -1 0
c p weight -484 1 0
c p weight 487 -1 0
c p weight -487 1 0
c p weight 490 -1 0
c p weight -490 1 0
c p weight 493 -1 0
c p weight -493 1 0
c p weight 496 -1 0
c p weight -496 1 0
c p weight 499 -1 0
c p weight -499 1 0
c p weight 502 -1 0
c p weight -502 1 0
c p weight 505 -1 0
c p weight -505 1 0
c p weight 508 -1 0
c p weight -508 1 0
c p weight 511 -1 0
c p weight -511 1 0
c p weight 514 -1 0
c p weight -514 1 0
c p weight 517 -1 0
c p weight -517 1 0
c p weight 520 -1 0
c p weight -520 1 0
c p weight 523 -1 0
c p weight -523 1 0
c p weight 526 -1 0
c p weight -526 1 0
c p weight 529 -1 0
c p weight -529 1 0
c p weight 532 -1 0
c p weight -532 1 0
c p weight 535 -1 0
c p weight -535 1 0
c p weight 538 -1 0
c p weight -538 1 0
c p weight 541 -1 0
c p weight -541 1 0
c p weight 544 -1 0
c p weight -544 1 0
c p weight 547 -1 0
c p weight -547 1 0
c p weight 550 -1 0
c p weight -550 1 0
c p weight 553 -1 0
c p weight -553 1 0
c p weight 556 -1 0
c p weight -556 1 0
c p weight 559 -1 0
c p weight -559 1 0
c p weight 562 -1 0
c p weight -562 1 0
c p weight 565 -1 0
c p weight -565 1 0
c p weight 568 -1 0
c p weight -568 1 0
c p weight 571 -1 0
c p weight -571 1 0
c p weight 574 -1 0
c p weight -574 1 0
c p weight 577 -1 0
c p weight -577 1 0
c p weight 580 -1 0
c p weight -580 1 0
c p weight 583 -1 0
c p weight -583 1 0
c p weight 586 -1 0
c p weight -586 1 0
c p weight 589 -1 0
c p weight -589 1 0
c p weight 592 -1 0
c p weight -592 1 0
c p weight 595 -1 0
c p weight -595 1 0
c p weight 598 -1 0
c p weight -598 1 0
c p weight 601 -1 0
c p weight -601 1 0
c p weight 604 -1 0
c p weight -604 1 0
c p weight 607 -1 0
c p weight -607 1 0
c p weight 610 -1 0
c p weight -610 1 0
c p weight 613 -1 0
c p weight -613 1 0
c p weight 616 -1 0
c p weight -616 1 0
c p weight 619 -1 0
c p weight -619 1 0
c p weight 622 -1 0
c p weight -622 1 0
c p weight 625 -1 0
c p weight -625 1 0
c p weight 628 -1 0
c p weight -628 1 0
c p weight 631 -1 0
c p weight -631 1 0
c p weight 634 -1 0
c p weight -634 1 0
c p weight 637 -1 0
c p weight -637 1 0
c p weight 640 -1 0
c p weight -640 1 0
c p weight 643 -1 0
c p weight -643 1 0
c p weight 646 -1 0
c p weight -646 1 0
c p weight 649 -1 0
c p weight -649 1 0
c p weight 652 -1 0
c p weight -652 1 0
c p weight 655 -1 0
c p weight -655 1 0
-259 0
-257 0
-255 0
-253 0
-251 0
-249 0
-247 0
-245 0
-243 0
-241 0
-239 0
-237 0
-235 0
-233 0
-231 0
-229 0
-227 0
-225 0
-223 0
-221 0
-219 0
-217 0
-215 0
-213 0
-211 0
-209 0
-207 0
-205 0
-203 0
-201 0
-199 0
-197 0
-195 0
-193 0
-191 0
-189 0
-187 0
-185 0
-183 0
-181 0
-179 0
-177 0
-175 0
-173 0
-171 0
-169 0
-167 0
-165 0
-163 0
-161 0
-159 0
-157 0
-155 0
-153 0
-151 0
-149 0
-147 0
-145 0
-143 0
-141 0
-139 0
-137 0
-135 0
-133 0
-131 0
-129 0
-127 0
-125 0
-123 0
-121 0
-119 0
-117 0
-115 0
-113 0
-111 0
-109 0
-107 0
-105 0
-103 0
-101 0
-99 0
-97 0
-95 0
-93 0
-91 0
-89 0
-87 0
-85 0
-83 0
-81 0
-79 0
-77 0
-75 0
-73 0
-71 0
-69 0
-67 0
-65 0
-63 0
-61 0
-59 0
-57 0
-55 0
-53 0
-51 0
-49 0
-47 0
-45 0
-43 0
-41 0
-39 0
-37 0
-35 0
-33 0
-31 0
-29 0
-27 0
-25 0
-23 0
-21 0
-19 0
-17 0
-15 0
-13 0
-11 0
-9 0
-7 0
-5 0
-3 0
-1 0
261 259 -260 0
261 -259 260 0
-261 259 260 0
-261 -259 -260 0
-262 259 0
-262 260 0
262 -259 -260 0
263 -259 261 0
-263 259 261 0
-264 261 0
263 -264 -259 0
-263 -264 259 0
263 264 259 -261 0
-263 264 -259 -261 0
-265 261 0
263 -265 259 0
-263 -265 -259 0
263 265 -259 -261 0
-263 265 259 -261 0
-266 263 0
-266 261 0
-266 -259 0
266 -263 259 -261 0
267 263 -261 0
267 -263 261 0
-267 263 261 0
-267 -263 -261 0
-268 263 0
-268 261 0
268 -263 -261 0
269 263 -257 0
269 -263 257 0
-269 263 257 0
-269 -263 -257 0
270 267 -258 0
270 -267 258 0
-270 267 258 0
-270 -267 -258 0
-271 263 0
-271 258 0
-271 257 -267 0
-271 -257 267 0
271 -263 257 267 -258 0
271 -263 -257 -267 -258 0
272 269 -255 0
272 -269 255 0
-272 269 255 0
-272 -269 -255 0
273 258 -256 0
273 -258 256 0
-273 258 256 0
-273 -258 -256 0
-274 269 0
-274 256 0
-274 255 -258 0
-274 -255 258 0
274 -269 255 258 -256 0
274 -269 -255 -258 -256 0
275 272 -253 0
275 -272 253 0
-275 272 253 0
-275 -272 -253 0
276 256 -254 0
276 -256 254 0
-276 256 254 0
-276 -256 -254 0
-277 272 0
-277 254 0
-277 253 -256 0
-277 -253 256 0
277 -272 253 256 -254 0
277 -272 -253 -256 -254 0
278 275 -251 0
278 -275 251 0
-278 275 251 0
-278 -275 -251 0
279 254 -252 0
279 -254 252 0
-279 254 252 0
-279 -254 -252 0
-280 275 0
-280 252 0
-280 251 -254 0
-280 -251 254 0
280 -275 251 254 -252 0
280 -275 -251 -254 -252 0
281 278 -249 0
281 -278 249 0
-281 278 249 0
-281 -278 -249 0
282 252 -250 0
282 -252 250 0
-282 252 250 0
-282 -252 -250 0
-283 278 0
-283 250 0
-283 249 -252 0
-283 -249 252 0
283 -278 249 252 -250 0
283 -278 -249 -252 -250 0
284 281 -247 0
284 -281 247 0
-284 281 247 0
-284 -281 -247 0
285 250 -248 0
285 -250 248 0
-285 250 248 0
-285 -250 -248 0
-286 281 0
-286 248 0
-286 247 -250 0
-286 -247 250 0
286 -281 247 250 -248 0
286 -281 -247 -250 -248 0
287 284 -245 0
287 -284 245 0
-287 284 245 0
-287 -284 -245 0
288 248 -246 0
288 -248 246 0
-288 248 246 0
-288 -248 -246 0
-289 284 0
-289 246 0
-289 245 -248 0
-289 -245 248 0
289 -284 245 248 -246 0
289 -284 -245 -248 -246 0
290 287 -243 0
290 -287 243 0
-290 287 243 0
-290 -287 -243 0
291 246 -244 0
291 -246 244 0
-291 246 244 0
-291 -246 -244 0
-292 287 0
-292 244 0
-292 243 -246 0
-292 -243 246 0
292 -287 243 246 -244 0
292 -287 -243 -246 -244 0
293 290 -241 0
293 -290 241 0
-293 290 241 0
-293 -290 -241 0
294 244 -242 0
294 -244 242 0
-294 244 242 0
-294 -244 -242 0
-295 290 0
-295 242 0
-295 241 -244 0
-295 -241 244 0
295 -290 241 244 -242 0
295 -290 -241 -244 -242 0
296 293 -239 0
296 -293 239 0
-296 293 239 0
-296 -293 -239 0
297 242 -240 0
297 -242 240 0
-297 242 240 0
-297 -242 -240 0
-298 293 0
-298 240 0
-298 239 -242 0
-298 -239 242 0
298 -293 239 242 -240 0
298 -293 -239 -242 -240 0
299 296 -237 0
299 -296 237 0
-299 296 237 0
-299 -296 -237 0
300 240 -238 0
300 -240 238 0
-300 240 238 0
-300 -240 -238 0
-301 296 0
-301 238 0
-301 237 -240 0
-301 -237 240 0
301 -296 237 240 -238 0
301 -296 -237 -240 -238 0
302 299 -235 0
302 -299 235 0
-302 299 235 0
-302 -299 -235 0
303 238 -236 0
303 -238 236 0
-303 238 236 0
-303 -238 -236 0
-304 299 0
-304 236 0
-304 235 -238 0
-304 -235 238 0
304 -299 235 238 -236 0
304 -299 -235 -238 -236 0
305 302 -233 0
305 -302 233 0
-305 302 233 0
-305 -302 -233 0
306 236 -234 0
306 -236 234 0
-306 236 234 0
-306 -236 -234 0
-307 302 0
-307 234 0
-307 233 -236 0
-307 -233 236 0
307 -302 233 236 -234 0
307 -302 -233 -236 -234 0
308 305 -231 0
308 -305 231 0
-308 305 231 0
-308 -305 -231 0
309 234 -232 0
309 -234 232 0
-309 234 232 0
-309 -234 -232 0
-310 305 0
-310 232 0
-310 231 -234 0
-310 -231 234 0
310 -305 231 234 -232 0
310 -305 -231 -234 -232 0
311 308 -229 0
311 -308 229 0
-311 308 229 0
-311 -308 -229 0
312 232 -230 0
312 -232 230 0
-312 232 230 0
-312 -232 -230 0
-313 308 0
-313 230 0
-313 229 -232 0
-313 -229 232 0
313 -308 229 232 -230 0
313 -308 -229 -232 -230 0
314 311 -227 0
314 -311 227 0
-314 311 227 0
-314 -311 -227 0
315 230 -228 0
315 -230 228 0
-315 230 228 0
-315 -230 -228 0
-316 311 0
-316 228 0
-316 227 -230 0
-316 -227 230 0
316 -311 227 230 -228 0
316 -311 -227 -230 -228 0
317 314 -225 0
317 -314 225 0
-317 314 225 0
-317 -314 -225 0
318 228 -226 0
318 -228 226 0
-318 228 226 0
-318 -228 -226 0
-319 314 0
-319 226 0
-319 225 -228 0
-319 -225 228 0
319 -314 225 228 -226 0
319 -314 -225 -228 -226 0
320 317 -223 0
320 -317 223 0
-320 317 223 0
-320 -317 -223 0
321 226 -224 0
321 -226 224 0
-321 226 224 0
-321 -226 -224 0
-322 317 0
-322 224 0
-322 223 -226 0
-322 -223 226 0
322 -317 223 226 -224 0
322 -317 -223 -226 -224 0
323 320 -221 0
323 -320 221 0
-323 320 221 0
-323 -320 -221 0
324 224 -222 0
324 -224 222 0
-324 224 222 0
-324 -224 -222 0
-325 320 0
-325 222 0
-325 221 -224 0
-325 -221 224 0
325 -320 221 224 -222 0
325 -320 -221 -224 -222 0
326 323 -219 0
326 -323 219 0
-326 323 219 0
-326 -323 -219 0
327 222 -220 0
327 -222 220 0
-327 222 220 0
-327 -222 -220 0
-328 323 0
-328 220 0
-328 219 -222 0
-328 -219 222 0
328 -323 219 222 -220 0
328 -323 -219 -222 -220 0
329 326 -217 0
329 -326 217 0
-329 326 217 0
-329 -326 -217 0
330 220 -218 0
330 -220 218 0
-330 220 218 0
-330 -220 -218 0
-331 326 0
-331 218 0
-331 217 -220 0
-331 -217 220 0
331 -326 217 220 -218 0
331 -326 -217 -220 -218 0
332 329 -215 0
332 -329 215 0
-332 329 215 0
-332 -329 -215 0
333 218 -216 0
333 -218 216 0
-333 218 216 0
-333 -218 -216 0
-334 329 0
-334 216 0
-334 215 -218 0
-334 -215 218 0
334 -329 215 218 -216 0
334 -329 -215 -218 -216 0
335 332 -213 0
335 -332 213 0
-335 332 213 0
-335 -332 -213 0
336 216 -214 0
336 -216 214 0
-336 216 214 0
-336 -216 -214 0
-337 332 0
-337 214 0
-337 213 -216 0
-337 -213 216 0
337 -332 213 216 -214 0
337 -332 -213 -216 -214 0
338 335 -211 0
338 -335 211 0
-338 335 211 0
-338 -335 -211 0
339 214 -212 0
339 -214 212 0
-339 214 212 0
-339 -214 -212 0
-340 335 0
-340 212 0
-340 211 -214 0
-340 -211 214 0
340 -335 211 214 -212 0
340 -335 -211 -214 -212 0
341 338 -209 0
341 -338 209 0
-341 338 209 0
-341 -338 -209 0
342 212 -210 0
342 -212 210 0
-342 212 210 0
-342 -212 -210 0
-343 338 0
-343 210 0
-343 209 -212 0
-343 -209 212 0
343 -338 209 212 -210 0
343 -338 -209 -212 -210 0
344 341 -207 0
344 -341 207 0
-344 341 207 0
-344 -341 -207 0
345 210 -208 0
345 -210 208 0
-345 210 208 0
-345 -210 -208 0
-346 341 0
-346 208 0
-346 207 -210 0
-346 -207 210 0
346 -341 207 210 -208 0
346 -341 -207 -210 -208 0
347 344 -205 0
347 -344 205 0
-347 344 205 0
-347 -344 -205 0
348 208 -206 0
348 -208 206 0
-348 208 206 0
-348 -208 -206 0
-349 344 0
-349 206 0
-349 205 -208 0
-349 -205 208 0
349 -344 205 208 -206 0
349 -344 -205 -208 -206 0
350 347 -203 0
350 -347 203 0
-350 347 203 0
-350 -347 -203 0
351 206 -204 0
351 -206 204 0
-351 206 204 0
-351 -206 -204 0
-352 347 0
-352 204 0
-352 203 -206 0
-352 -203 206 0
352 -347 203 206 -204 0
352 -347 -203 -206 -204 0
353 350 -201 0
353 -350 201 0
-353 350 201 0
-353 -350 -201 0
354 204 -202 0
354 -204 202 0
-354 204 202 0
-354 -204 -202 0
-355 350 0
-355 202 0
-355 201 -204 0
-355 -201 204 0
355 -350 201 204 -202 0
355 -350 -201 -204 -202 0
356 353 -199 0
356 -353 199 0
-356 353 199 0
-356 -353 -199 0
357 202 -200 0
357 -202 200 0
-357 202 200 0
-357 -202 -200 0
-358 353 0
-358 200 0
-358 199 -202 0
-358 -199 202 0
358 -353 199 202 -200 0
358 -353 -199 -202 -200 0
359 356 -197 0
359 -356 197 0
-359 356 197 0
-359 -356 -197 0
360 200 -198 0
360 -200 198 0
-360 200 198 0
-360 -200 -198 0
-361 356 0
-361 198 0
-361 197 -200 0
-361 -197 200 0
361 -356 197 200 -198 0
361 -356 -197 -200 -198 0
362 359 -195 0
362 -359 195 0
-362 359 195 0
-362 -359 -195 0
363 198 -196 0
363 -198 196 0
-363 198 196 0
-363 -198 -196 0
-364 359 0
-364 196 0
-364 195 -198 0
-364 -195 198 0
364 -359 195 198 -196 0
364 -359 -195 -198 -196 0
365 362 -193 0
365 -362 193 0
-365 362 193 0
-365 -362 -193 0
366 196 -194 0
366 -196 194 0
-366 196 194 0
-366 -196 -194 0
-367 362 0
-367 194 0
-367 193 -196 0
-367 -193 196 0
367 -362 193 196 -194 0
367 -362 -193 -196 -194 0
368 365 -191 0
368 -365 191 0
-368 365 191 0
-368 -365 -191 0
369 194 -192 0
369 -194 192 0
-369 194 192 0
-369 -194 -192 0
-370 365 0
-370 192 0
-370 191 -194 0
-370 -191 194 0
370 -365 191 194 -192 0
370 -365 -191 -194 -192 0
371 368 -189 0
371 -368 189 0
-371 368 189 0
-371 -368 -189 0
372 192 -190 0
372 -192 190 0
-372 192 190 0
-372 -192 -190 0
-373 368 0
-373 190 0
-373 189 -192 0
-373 -189 192 0
373 -368 189 192 -190 0
373 -368 -189 -192 -190 0
374 371 -187 0
374 -371 187 0
-374 371 187 0
-374 -371 -187 0
375 190 -188 0
375 -190 188 0
-375 190 188 0
-375 -190 -188 0
-376 371 0
-376 188 0
-376 187 -190 0
-376 -187 190 0
376 -371 187 190 -188 0
376 -371 -187 -190 -188 0
377 374 -185 0
377 -374 185 0
-377 374 185 0
-377 -374 -185 0
378 188 -186 0
378 -188 186 0
-378 188 186 0
-378 -188 -186 0
-379 374 0
-379 186 0
-379 185 -188 0
-379 -185 188 0
379 -374 185 188 -186 0
379 -374 -185 -188 -186 0
380 377 -183 0
380 -377 183 0
-380 377 183 0
-380 -377 -183 0
381 186 -184 0
381 -186 184 0
-381 186 184 0
-381 -186 -184 0
-382 377 0
-382 184 0
-382 183 -186 0
-382 -183 186 0
382 -377 183 186 -184 0
382 -377 -183 -186 -184 0
383 380 -181 0
383 -380 181 0
-383 380 181 0
-383 -380 -181 0
384 184 -182 0
384 -184 182 0
-384 184 182 0
-384 -184 -182 0
-385 380 0
-385 182 0
-385 181 -184 0
-385 -181 184 0
385 -380 181 184 -182 0
385 -380 -181 -184 -182 0
386 383 -179 0
386 -383 179 0
-386 383 179 0
-386 -383 -179 0
387 182 -180 0
387 -182 180 0
-387 182 180 0
-387 -182 -180 0
-388 383 0
-388 180 0
-388 179 -182 0
-388 -179 182 0
388 -383 179 182 -180 0
388 -383 -179 -182 -180 0
389 386 -177 0
389 -386 177 0
-389 386 177 0
-389 -386 -177 0
390 180 -178 0
390 -180 178 0
-390 180 178 0
-390 -180 -178 0
-391 386 0
-391 178 0
-391 177 -180 0
-391 -177 180 0
391 -386 177 180 -178 0
391 -386 -177 -180 -178 0
392 389 -175 0
392 -389 175 0
-392 389 175 0
-392 -389 -175 0
393 178 -176 0
393 -178 176 0
-393 178 176 0
-393 -178 -176 0
-394 389 0
-394 176 0
-394 175 -178 0
-394 -175 178 0
394 -389 175 178 -176 0
394 -389 -175 -178 -176 0
395 392 -173 0
395 -392 173 0
-395 392 173 0
-395 -392 -173 0
396 176 -174 0
396 -176 174 0
-396 176 174 0
-396 -176 -174 0
-397 392 0
-397 174 0
-397 173 -176 0
-397 -173 176 0
397 -392 173 176 -174 0
397 -392 -173 -176 -174 0
398 395 -171 0
398 -395 171 0
-398 395 171 0
-398 -395 -171 0
399 174 -172 0
399 -174 172 0
-399 174 172 0
-399 -174 -172 0
-400 395 0
-400 172 0
-400 171 -174 0
-400 -171 174 0
400 -395 171 174 -172 0
400 -395 -171 -174 -172 0
401 398 -169 0
401 -398 169 0
-401 398 169 0
-401 -398 -169 0
402 172 -170 0
402 -172 170 0
-402 172 170 0
-402 -172 -170 0
-403 398 0
-403 170 0
-403 169 -172 0
-403 -169 172 0
403 -398 169 172 -170 0
403 -398 -169 -172 -170 0
404 401 -167 0
404 -401 167 0
-404 401 167 0
-404 -401 -167 0
405 170 -168 0
405 -170 168 0
-405 170 168 0
-405 -170 -168 0
-406 401 0
-406 168 0
-406 167 -170 0
-406 -167 170 0
406 -401 167 170 -168 0
406 -401 -167 -170 -168 0
407 404 -165 0
407 -404 165 0
-407 404 165 0
-407 -404 -165 0
408 168 -166 0
408 -168 166 0
-408 168 166 0
-408 -168 -166 0
-409 404 0
-409 166 0
-409 165 -168 0
-409 -165 168 0
409 -404 165 168 -166 0
409 -404 -165 -168 -166 0
410 407 -163 0
410 -407 163 0
-410 407 163 0
-410 -407 -163 0
411 166 -164 0
411 -166 164 0
-411 166 164 0
-411 -166 -164 0
-412 407 0
-412 164 0
-412 163 -166 0
-412 -163 166 0
412 -407 163 166 -164 0
412 -407 -163 -166 -164 0
413 410 -161 0
413 -410 161 0
-413 410 161 0
-413 -410 -161 0
414 164 -162 0
414 -164 162 0
-414 164 162 0
-414 -164 -162 0
-415 410 0
-415 162 0
-415 161 -164 0
-415 -161 164 0
415 -410 161 164 -162 0
415 -410 -161 -164 -162 0
416 413 -159 0
416 -413 159 0
-416 413 159 0
-416 -413 -159 0
417 162 -160 0
417 -162 160 0
-417 162 160 0
-417 -162 -160 0
-418 413 0
-418 160 0
-418 159 -162 0
-418 -159 162 0
418 -413 159 162 -160 0
418 -413 -159 -162 -160 0
419 416 -157 0
419 -416 157 0
-419 416 157 0
-419 -416 -157 0
420 160 -158 0
420 -160 158 0
-420 160 158 0
-420 -160 -158 0
-421 416 0
-421 158 0
-421 157 -160 0
-421 -157 160 0
421 -416 157 160 -158 0
421 -416 -157 -160 -158 0
422 419 -155 0
422 -419 155 0
-422 419 155 0
-422 -419 -155 0
423 158 -156 0
423 -158 156 0
-423 158 156 0
-423 -158 -156 0
-424 419 0
-424 156 0
-424 155 -158 0
-424 -155 158 0
424 -419 155 158 -156 0
424 -419 -155 -158 -156 0
425 422 -153 0
425 -422 153 0
-425 422 153 0
-425 -422 -153 0
426 156 -154 0
426 -156 154 0
-426 156 154 0
-426 -156 -154 0
-427 422 0
-427 154 0
-427 153 -156 0
-427 -153 156 0
427 -422 153 156 -154 0
427 -422 -153 -156 -154 0
428 425 -151 0
428 -425 151 0
-428 425 151 0
-428 -425 -151 0
429 154 -152 0
429 -154 152 0
-429 154 152 0
-429 -154 -152 0
-430 425 0
-430 152 0
-430 151 -154 0
-430 -151 154 0
430 -425 151 154 -152 0
430 -425 -151 -154 -152 0
431 428 -149 0
431 -428 149 0
-431 428 149 0
-431 -428 -149 0
432 152 -150 0
432 -152 150 0
-432 152 150 0
-432 -152 -150 0
-433 428 0
-433 150 0
-433 149 -152 0
-433 -149 152 0
433 -428 149 152 -150 0
433 -428 -149 -152 -150 0
434 431 -147 0
434 -431 147 0
-434 431 147 0
-434 -431 -147 0
435 150 -148 0
435 -150 148 0
-435 150 148 0
-435 -150 -148 0
-436 431 0
-436 148 0
-436 147 -150 0
-436 -147 150 0
436 -431 147 150 -148 0
436 -431 -147 -150 -148 0
437 434 -145 0
437 -434 145 0
-437 434 145 0
-437 -434 -145 0
438 148 -146 0
438 -148 146 0
-438 148 146 0
-438 -148 -146 0
-439 434 0
-439 146 0
-439 145 -148 0
-439 -145 148 0
439 -434 145 148 -146 0
439 -434 -145 -148 -146 0
440 437 -143 0
440 -437 143 0
-440 437 143 0
-440 -437 -143 0
441 146 -144 0
441 -146 144 0
-441 146 144 0
-441 -146 -144 0
-442 437 0
-442 144 0
-442 143 -146 0
-442 -143 146 0
442 -437 143 146 -144 0
442 -437 -143 -146 -144 0
443 440 -141 0
443 -440 141 0
-443 440 141 0
-443 -440 -141 0
444 144 -142 0
444 -144 142 0
-444 144 142 0
-444 -144 -142 0
-445 440 0
-445 142 0
-445 141 -144 0
-445 -141 144 0
445 -440 141 144 -142 0
445 -440 -141 -144 -142 0
446 443 -139 0
446 -443 139 0
-446 443 139 0
-446 -443 -139 0
447 142 -140 0
447 -142 140 0
-447 142 140 0
-447 -142 -140 0
-448 443 0
-448 140 0
-448 139 -142 0
-448 -139 142 0
448 -443 139 142 -140 0
448 -443 -139 -142 -140 0
449 446 -137 0
449 -446 137 0
-449 446 137 0
-449 -446 -137 0
450 140 -138 0
450 -140 138 0
-450 140 138 0
-450 -140 -138 0
-451 446 0
-451 138 0
-451 137 -140 0
-451 -137 140 0
451 -446 137 140 -138 0
451 -446 -137 -140 -138 0
452 449 -135 0
452 -449 135 0
-452 449 135 0
-452 -449 -135 0
453 138 -136 0
453 -138 136 0
-453 138 136 0
-453 -138 -136 0
-454 449 0
-454 136 0
-454 135 -138 0
-454 -135 138 0
454 -449 135 138 -136 0
454 -449 -135 -138 -136 0
455 452 -133 0
455 -452 133 0
-455 452 133 0
-455 -452 -133 0
456 136 -134 0
456 -136 134 0
-456 136 134 0
-456 -136 -134 0
-457 452 0
-457 134 0
-457 133 -136 0
-457 -133 136 0
457 -452 133 136 -134 0
457 -452 -133 -136 -134 0
458 455 -131 0
458 -455 131 0
-458 455 131 0
-458 -455 -131 0
459 134 -132 0
459 -134 132 0
-459 134 132 0
-459 -134 -132 0
-460 455 0
-460 132 0
-460 131 -134 0
-460 -131 134 0
460 -455 131 134 -132 0
460 -455 -131 -134 -132 0
461 458 -129 0
461 -458 129 0
-461 458 129 0
-461 -458 -129 0
462 132 -130 0
462 -132 130 0
-462 132 130 0
-462 -132 -130 0
-463 458 0
-463 130 0
-463 129 -132 0
-463 -129 132 0
463 -458 129 132 -130 0
463 -458 -129 -132 -130 0
464 461 -127 0
464 -461 127 0
-464 461 127 0
-464 -461 -127 0
465 130 -128 0
465 -130 128 0
-465 130 128 0
-465 -130 -128 0
-466 461 0
-466 128 0
-466 127 -130 0
-466 -127 130 0
466 -461 127 130 -128 0
466 -461 -127 -130 -128 0
467 464 -125 0
467 -464 125 0
-467 464 125 0
-467 -464 -125 0
468 128 -126 0
468 -128 126 0
-468 128 126 0
-468 -128 -126 0
-469 464 0
-469 126 0
-469 125 -128 0
-469 -125 128 0
469 -464 125 128 -126 0
469 -464 -125 -128 -126 0
470 467 -123 0
470 -467 123 0
-470 467 123 0
-470 -467 -123 0
471 126 -124 0
471 -126 124 0
-471 126 124 0
-471 -126 -124 0
-472 467 0
-472 124 0
-472 123 -126 0
-472 -123 126 0
472 -467 123 126 -124 0
472 -467 -123 -126 -124 0
473 470 -121 0
473 -470 121 0
-473 470 121 0
-473 -470 -121 0
474 124 -122 0
474 -124 122 0
-474 124 122 0
-474 -124 -122 0
-475 470 0
-475 122 0
-475 121 -124 0
-475 -121 124 0
475 -470 121 124 -122 0
475 -470 -121 -124 -122 0
476 473 -119 0
476 -473 119 0
-476 473 119 0
-476 -473 -119 0
477 122 -120 0
477 -122 120 0
-477 122 120 0
-477 -122 -120 0
-478 473 0
-478 120 0
-478 119 -122 0
-478 -119 122 0
478 -473 119 122 -120 0
478 -473 -119 -122 -120 0
479 476 -117 0
479 -476 117 0
-479 476 117 0
-479 -476 -117 0
480 120 -118 0
480 -120 118 0
-480 120 118 0
-480 -120 -118 0
-481 476 0
-481 118 0
-481 117 -120 0
-481 -117 120 0
481 -476 117 120 -118 0
481 -476 -117 -120 -118 0
482 479 -115 0
482 -479 115 0
-482 479 115 0
-482 -479 -115 0
483 118 -116 0
483 -118 116 0
-483 118 116 0
-483 -118 -116 0
-484 479 0
-484 116 0
-484 115 -118 0
-484 -115 118 0
484 -479 115 118 -116 0
484 -479 -115 -118 -116 0
485 482 -113 0
485 -482 113 0
-485 482 113 0
-485 -482 -113 0
486 116 -114 0
486 -116 114 0
-486 116 114 0
-486 -116 -114 0
-487 482 0
-487 114 0
-487 113 -116 0
-487 -113 116 0
487 -482 113 116 -114 0
487 -482 -113 -116 -114 0
488 485 -111 0
488 -485 111 0
-488 485 111 0
-488 -485 -111 0
489 114 -112 0
489 -114 112 0
-489 114 112 0
-489 -114 -112 0
-490 485 0
-490 112 0
-490 111 -114 0
-490 -111 114 0
490 -485 111 114 -112 0
490 -485 -111 -114 -112 0
491 488 -109 0
491 -488 109 0
-491 488 109 0
-491 -488 -109 0
492 112 -110 0
492 -112 110 0
-492 112 110 0
-492 -112 -110 0
-493 488 0
-493 110 0
-493 109 -112 0
-493 -109 112 0
493 -488 109 112 -110 0
493 -488 -109 -112 -110 0
494 491 -107 0
494 -491 107 0
-494 491 107 0
-494 -491 -107 0
495 110 -108 0
495 -110 108 0
-495 110 108 0
-495 -110 -108 0
-496 491 0
-496 108 0
-496 107 -110 0
-496 -107 110 0
496 -491 107 110 -108 0
496 -491 -107 -110 -108 0
497 494 -105 0
497 -494 105 0
-497 494 105 0
-497 -494 -105 0
498 108 -106 0
498 -108 106 0
-498 108 106 0
-498 -108 -106 0
-499 494 0
-499 106 0
-499 105 -108 0
-499 -105 108 0
499 -494 105 108 -106 0
499 -494 -105 -108 -106 0
500 497 -103 0
500 -497 103 0
-500 497 103 0
-500 -497 -103 0
501 106 -104 0
501 -106 104 0
-501 106 104 0
-501 -106 -104 0
-502 497 0
-502 104 0
-502 103 -106 0
-502 -103 106 0
502 -497 103 106 -104 0
502 -497 -103 -106 -104 0
503 500 -101 0
503 -500 101 0
-503 500 101 0
-503 -500 -101 0
504 104 -102 0
504 -104 102 0
-504 104 102 0
-504 -104 -102 0
-505 500 0
-505 102 0
-505 101 -104 0
-505 -101 104 0
505 -500 101 104 -102 0
505 -500 -101 -104 -102 0
506 503 -99 0
506 -503 99 0
-506 503 99 0
-506 -503 -99 0
507 102 -100 0
507 -102 100 0
-507 102 100 0
-507 -102 -100 0
-508 503 0
-508 100 0
-508 99 -102 0
-508 -99 102 0
508 -503 99 102 -100 0
508 -503 -99 -102 -100 0
509 506 -97 0
509 -506 97 0
-509 506 97 0
-509 -506 -97 0
510 100 -98 0
510 -100 98 0
-510 100 98 0
-510 -100 -98 0
-511 506 0
-511 98 0
-511 97 -100 0
-511 -97 100 0
511 -506 97 100 -98 0
511 -506 -97 -100 -98 0
512 509 -95 0
512 -509 95 0
-512 509 95 0
-512 -509 -95 0
513 98 -96 0
513 -98 96 0
-513 98 96 0
-513 -98 -96 0
-514 509 0
-514 96 0
-514 95 -98 0
-514 -95 98 0
514 -509 95 98 -96 0
514 -509 -95 -98 -96 0
515 512 -93 0
515 -512 93 0
-515 512 93 0
-515 -512 -93 0
516 96 -94 0
516 -96 94 0
-516 96 94 0
-516 -96 -94 0
-517 512 0
-517 94 0
-517 93 -96 0
-517 -93 96 0
517 -512 93 96 -94 0
517 -512 -93 -96 -94 0
518 515 -91 0
518 -515 91 0
-518 515 91 0
-518 -515 -91 0
519 94 -92 0
519 -94 92 0
-519 94 92 0
-519 -94 -92 0
-520 515 0
-520 92 0
-520 91 -94 0
-520 -91 94 0
520 -515 91 94 -92 0
520 -515 -91 -94 -92 0
521 518 -89 0
521 -518 89 0
-521 518 89 0
-521 -518 -89 0
522 92 -90 0
522 -92 90 0
-522 92 90 0
-522 -92 -90 0
-523 518 0
-523 90 0
-523 89 -92 0
-523 -89 92 0
523 -518 89 92 -90 0
523 -518 -89 -92 -90 0
524 521 -87 0
524 -521 87 0
-524 521 87 0
-524 -521 -87 0
525 90 -88 0
525 -90 88 0
-525 90 88 0
-525 -90 -88 0
-526 521 0
-526 88 0
-526 87 -90 0
-526 -87 90 0
526 -521 87 90 -88 0
526 -521 -87 -90 -88 0
527 524 -85 0
527 -524 85 0
-527 524 85 0
-527 -524 -85 0
528 88 -86 0
528 -88 86 0
-528 88 86 0
-528 -88 -86 0
-529 524 0
-529 86 0
-529 85 -88 0
-529 -85 88 0
529 -524 85 88 -86 0
529 -524 -85 -88 -86 0
530 527 -83 0
530 -527 83 0
-530 527 83 0
-530 -527 -83 0
531 86 -84 0
531 -86 84 0
-531 86 84 0
-531 -86 -84 0
-532 527 0
-532 84 0
-532 83 -86 0
-532 -83 86 0
532 -527 83 86 -84 0
532 -527 -83 -86 -84 0
533 530 -81 0
533 -530 81 0
-533 530 81 0
-533 -530 -81 0
534 84 -82 0
534 -84 82 0
-534 84 82 0
-534 -84 -82 0
-535 530 0
-535 82 0
-535 81 -84 0
-535 -81 84 0
535 -530 81 84 -82 0
535 -530 -81 -84 -82 0
536 533 -79 0
536 -533 79 0
-536 533 79 0
-536 -533 -79 0
537 82 -80 0
537 -82 80 0
-537 82 80 0
-537 -82 -80 0
-538 533 0
-538 80 0
-538 79 -82 0
-538 -79 82 0
538 -533 79 82 -80 0
538 -533 -79 -82 -80 0
539 536 -77 0
539 -536 77 0
-539 536 77 0
-539 -536 -77 0
540 80 -78 0
540 -80 78 0
-540 80 78 0
-540 -80 -78 0
-541 536 0
-541 78 0
-541 77 -80 0
-541 -77 80 0
541 -536 77 80 -78 0
541 -536 -77 -80 -78 0
542 539 -75 0
542 -539 75 0
-542 539 75 0
-542 -539 -75 0
543 78 -76 0
543 -78 76 0
-543 78 76 0
-543 -78 -76 0
-544 539 0
-544 76 0
-544 75 -78 0
-544 -75 78 0
544 -539 75 78 -76 0
544 -539 -75 -78 -76 0
545 542 -73 0
545 -542 73 0
-545 542 73 0
-545 -542 -73 0
546 76 -74 0
546 -76 74 0
-546 76 74 0
-546 -76 -74 0
-547 542 0
-547 74 0
-547 73 -76 0
-547 -73 76 0
547 -542 73 76 -74 0
547 -542 -73 -76 -74 0
548 545 -71 0
548 -545 71 0
-548 545 71 0
-548 -545 -71 0
549 74 -72 0
549 -74 72 0
-549 74 72 0
-549 -74 -72 0
-550 545 0
-550 72 0
-550 71 -74 0
-550 -71 74 0
550 -545 71 74 -72 0
550 -545 -71 -74 -72 0
551 548 -69 0
551 -548 69 0
-551 548 69 0
-551 -548 -69 0
552 72 -70 0
552 -72 70 0
-552 72 70 0
-552 -72 -70 0
-553 548 0
-553 70 0
-553 69 -72 0
-553 -69 72 0
553 -548 69 72 -70 0
553 -548 -69 -72 -70 0
554 551 -67 0
554 -551 67 0
-554 551 67 0
-554 -551 -67 0
555 70 -68 0
555 -70 68 0
-555 70 68 0
-555 -70 -68 0
-556 551 0
-556 68 0
-556 67 -70 0
-556 -67 70 0
556 -551 67 70 -68 0
556 -551 -67 -70 -68 0
557 554 -65 0
557 -554 65 0
-557 554 65 0
-557 -554 -65 0
558 68 -66 0
558 -68 66 0
-558 68 66 0
-558 -68 -66 0
-559 554 0
-559 66 0
-559 65 -68 0
-559 -65 68 0
559 -554 65 68 -66 0
559 -554 -65 -68 -66 0
560 557 -63 0
560 -557 63 0
-560 557 63 0
-560 -557 -63 0
561 66 -64 0
561 -66 64 0
-561 66 64 0
-561 -66 -64 0
-562 557 0
-562 64 0
-562 63 -66 0
-562 -63 66 0
562 -557 63 66 -64 0
562 -557 -63 -66 -64 0
563 560 -61 0
563 -560 61 0
-563 560 61 0
-563 -560 -61 0
564 64 -62 0
564 -64 62 0
-564 64 62 0
-564 -64 -62 0
-565 560 0
-565 62 0
-565 61 -64 0
-565 -61 64 0
565 -560 61 64 -62 0
565 -560 -61 -64 -62 0
566 563 -59 0
566 -563 59 0
-566 563 59 0
-566 -563 -59 0
567 62 -60 0
567 -62 60 0
-567 62 60 0
-567 -62 -60 0
-568 563 0
-568 60 0
-568 59 -62 0
-568 -59 62 0
568 -563 59 62 -60 0
568 -563 -59 -62 -60 0
569 566 -57 0
569 -566 57 0
-569 566 57 0
-569 -566 -57 0
570 60 -58 0
570 -60 58 0
-570 60 58 0
-570 -60 -58 0
-571 566 0
-571 58 0
-571 57 -60 0
-571 -57 60 0
571 -566 57 60 -58 0
571 -566 -57 -60 -58 0
572 569 -55 0
572 -569 55 0
-572 569 55 0
-572 -569 -55 0
573 58 -56 0
573 -58 56 0
-573 58 56 0
-573 -58 -56 0
-574 569 0
-574 56 0
-574 55 -58 0
-574 -55 58 0
574 -569 55 58 -56 0
574 -569 -55 -58 -56 0
575 572 -53 0
575 -572 53 0
-575 572 53 0
-575 -572 -53 0
576 56 -54 0
576 -56 54 0
-576 56 54 0
-576 -56 -54 0
-577 572 0
-577 54 0
-577 53 -56 0
-577 -53 56 0
577 -572 53 56 -54 0
577 -572 -53 -56 -54 0
578 575 -51 0
578 -575 51 0
-578 575 51 0
-578 -575 -51 0
579 54 -52 0
579 -54 52 0
-579 54 52 0
-579 -54 -52 0
-580 575 0
-580 52 0
-580 51 -54 0
-580 -51 54 0
580 -575 51 54 -52 0
580 -575 -51 -54 -52 0
581 578 -49 0
581 -578 49 0
-581 578 49 0
-581 -578 -49 0
582 52 -50 0
582 -52 50 0
-582 52 50 0
-582 -52 -50 0
-583 578 0
-583 50 0
-583 49 -52 0
-583 -49 52 0
583 -578 49 52 -50 0
583 -578 -49 -52 -50 0
584 581 -47 0
584 -581 47 0
-584 581 47 0
-584 -581 -47 0
585 50 -48 0
585 -50 48 0
-585 50 48 0
-585 -50 -48 0
-586 581 0
-586 48 0
-586 47 -50 0
-586 -47 50 0
586 -581 47 50 -48 0
586 -581 -47 -50 -48 0
587 584 -45 0
587 -584 45 0
-587 584 45 0
-587 -584 -45 0
588 48 -46 0
588 -48 46 0
-588 48 46 0
-588 -48 -46 0
-589 584 0
-589 46 0
-589 45 -48 0
-589 -45 48 0
589 -584 45 48 -46 0
589 -584 -45 -48 -46 0
590 587 -43 0
590 -587 43 0
-590 587 43 0
-590 -587 -43 0
591 46 -44 0
591 -46 44 0
-591 46 44 0
-591 -46 -44 0
-592 587 0
-592 44 0
-592 43 -46 0
-592 -43 46 0
592 -587 43 46 -44 0
592 -587 -43 -46 -44 0
593 590 -41 0
593 -590 41 0
-593 590 41 0
-593 -590 -41 0
594 44 -42 0
594 -44 42 0
-594 44 42 0
-594 -44 -42 0
-595 590 0
-595 42 0
-595 41 -44 0
-595 -41 44 0
595 -590 41 44 -42 0
595 -590 -41 -44 -42 0
596 593 -39 0
596 -593 39 0
-596 593 39 0
-596 -593 -39 0
597 42 -40 0
597 -42 40 0
-597 42 40 0
-597 -42 -40 0
-598 593 0
-598 40 0
-598 39 -42 0
-598 -39 42 0
598 -593 39 42 -40 0
598 -593 -39 -42 -40 0
599 596 -37 0
599 -596 37 0
-599 596 37 0
-599 -596 -37 0
600 40 -38 0
600 -40 38 0
-600 40 38 0
-600 -40 -38 0
-601 596 0
-601 38 0
-601 37 -40 0
-601 -37 40 0
601 -596 37 40 -38 0
601 -596 -37 -40 -38 0
602 599 -35 0
602 -599 35 0
-602 599 35 0
-602 -599 -35 0
603 38 -36 0
603 -38 36 0
-603 38 36 0
-603 -38 -36 0
-604 599 0
-604 36 0
-604 35 -38 0
-604 -35 38 0
604 -599 35 38 -36 0
604 -599 -35 -38 -36 0
605 602 -33 0
605 -602 33 0
-605 602 33 0
-605 -602 -33 0
606 36 -34 0
606 -36 34 0
-606 36 34 0
-606 -36 -34 0
-607 602 0
-607 34 0
-607 33 -36 0
-607 -33 36 0
607 -602 33 36 -34 0
607 -602 -33 -36 -34 0
608 605 -31 0
608 -605 31 0
-608 605 31 0
-608 -605 -31 0
609 34 -32 0
609 -34 32 0
-609 34 32 0
-609 -34 -32 0
-610 605 0
-610 32 0
-610 31 -34 0
-610 -31 34 0
610 -605 31 34 -32 0
610 -605 -31 -34 -32 0
611 608 -29 0
611 -608 29 0
-611 608 29 0
-611 -608 -29 0
612 32 -30 0
612 -32 30 0
-612 32 30 0
-612 -32 -30 0
-613 608 0
-613 30 0
-613 29 -32 0
-613 -29 32 0
613 -608 29 32 -30 0
613 -608 -29 -32 -30 0
614 611 -27 0
614 -611 27 0
-614 611 27 0
-614 -611 -27 0
615 30 -28 0
615 -30 28 0
-615 30 28 0
-615 -30 -28 0
-616 611 0
-616 28 0
-616 27 -30 0
-616 -27 30 0
616 -611 27 30 -28 0
616 -611 -27 -30 -28 0
617 614 -25 0
617 -614 25 0
-617 614 25 0
-617 -614 -25 0
618 28 -26 0
618 -28 26 0
-618 28 26 0
-618 -28 -26 0
-619 614 0
-619 26 0
-619 25 -28 0
-619 -25 28 0
619 -614 25 28 -26 0
619 -614 -25 -28 -26 0
620 617 -23 0
620 -617 23 0
-620 617 23 0
-620 -617 -23 0
621 26 -24 0
621 -26 24 0
-621 26 24 0
-621 -26 -24 0
-622 617 0
-622 24 0
-622 23 -26 0
-622 -23 26 0
622 -617 23 26 -24 0
622 -617 -23 -26 -24 0
623 620 -21 0
623 -620 21 0
-623 620 21 0
-623 -620 -21 0
624 24 -22 0
624 -24 22 0
-624 24 22 0
-624 -24 -22 0
-625 620 0
-625 22 0
-625 21 -24 0
-625 -21 24 0
625 -620 21 24 -22 0
625 -620 -21 -24 -22 0
626 623 -19 0
626 -623 19 0
-626 623 19 0
-626 -623 -19 0
627 22 -20 0
627 -22 20 0
-627 22 20 0
-627 -22 -20 0
-628 623 0
-628 20 0
-628 19 -22 0
-628 -19 22 0
628 -623 19 22 -20 0
628 -623 -19 -22 -20 0
629 626 -17 0
629 -626 17 0
-629 626 17 0
-629 -626 -17 0
630 20 -18 0
630 -20 18 0
-630 20 18 0
-630 -20 -18 0
-631 626 0
-631 18 0
-631 17 -20 0
-631 -17 20 0
631 -626 17 20 -18 0
631 -626 -17 -20 -18 0
632 629 -15 0
632 -629 15 0
-632 629 15 0
-632 -629 -15 0
633 18 -16 0
633 -18 16 0
-633 18 16 0
-633 -18 -16 0
-634 629 0
-634 16 0
-634 15 -18 0
-634 -15 18 0
634 -629 15 18 -16 0
634 -629 -15 -18 -16 0
635 632 -13 0
635 -632 13 0
-635 632 13 0
-635 -632 -13 0
636 16 -14 0
636 -16 14 0
-636 16 14 0
-636 -16 -14 0
-637 632 0
-637 14 0
-637 13 -16 0
-637 -13 16 0
637 -632 13 16 -14 0
637 -632 -13 -16 -14 0
638 635 -11 0
638 -635 11 0
-638 635 11 0
-638 -635 -11 0
639 14 -12 0
639 -14 12 0
-639 14 12 0
-639 -14 -12 0
-640 635 0
-640 12 0
-640 11 -14 0
-640 -11 14 0
640 -635 11 14 -12 0
640 -635 -11 -14 -12 0
641 638 -9 0
641 -638 9 0
-641 638 9 0
-641 -638 -9 0
642 12 -10 0
642 -12 10 0
-642 12 10 0
-642 -12 -10 0
-643 638 0
-643 10 0
-643 9 -12 0
-643 -9 12 0
643 -638 9 12 -10 0
643 -638 -9 -12 -10 0
644 641 -7 0
644 -641 7 0
-644 641 7 0
-644 -641 -7 0
645 10 -8 0
645 -10 8 0
-645 10 8 0
-645 -10 -8 0
-646 641 0
-646 8 0
-646 7 -10 0
-646 -7 10 0
646 -641 7 10 -8 0
646 -641 -7 -10 -8 0
647 644 -5 0
647 -644 5 0
-647 644 5 0
-647 -644 -5 0
648 8 -6 0
648 -8 6 0
-648 8 6 0
-648 -8 -6 0
-649 644 0
-649 6 0
-649 5 -8 0
-649 -5 8 0
649 -644 5 8 -6 0
649 -644 -5 -8 -6 0
650 647 -3 0
650 -647 3 0
-650 647 3 0
-650 -647 -3 0
651 6 -4 0
651 -6 4 0
-651 6 4 0
-651 -6 -4 0
-652 647 0
-652 4 0
-652 3 -6 0
-652 -3 6 0
652 -647 3 6 -4 0
652 -647 -3 -6 -4 0
653 650 -1 0
653 -650 1 0
-653 650 1 0
-653 -650 -1 0
654 4 -2 0
654 -4 2 0
-654 4 2 0
-654 -4 -2 0
-655 650 0
-655 2 0
-655 1 -4 0
-655 -1 4 0
655 -650 1 4 -2 0
655 -650 -1 -4 -2 0
-653 0
-650 0
-654 0
-647 0
-651 0
-644 0
-648 0
-641 0
-645 0
-638 0
-642 0
-635 0
-639 0
-632 0
-636 0
-629 0
-633 0
-626 0
-630 0
-623 0
-627 0
-620 0
-624 0
-617 0
-621 0
-614 0
-618 0
-611 0
-615 0
-608 0
-612 0
-605 0
-609 0
-602 0
-606 0
-599 0
-603 0
-596 0
-600 0
-593 0
-597 0
-590 0
-594 0
-587 0
-591 0
-584 0
-588 0
-581 0
-585 0
-578 0
-582 0
-575 0
-579 0
-572 0
-576 0
-569 0
-573 0
-566 0
-570 0
-563 0
-567 0
-560 0
-564 0
-557 0
-561 0
-554 0
-558 0
-551 0
-555 0
-548 0
-552 0
-545 0
-549 0
-542 0
-546 0
-539 0
-543 0
-536 0
-540 0
-533 0
-537 0
-530 0
-534 0
-527 0
-531 0
-524 0
-528 0
-521 0
-525 0
-518 0
-522 0
-515 0
-519 0
-512 0
-516 0
-509 0
-513 0
-506 0
-510 0
-503 0
-507 0
-500 0
-504 0
-497 0
-501 0
-494 0
-498 0
-491 0
-495 0
-488 0
-492 0
-485 0
-489 0
-482 0
-486 0
-479 0
-483 0
-476 0
-480 0
-473 0
-477 0
-470 0
-474 0
-467 0
-471 0
-464 0
-468 0
-461 0
-465 0
-458 0
-462 0
-455 0
-459 0
-452 0
-456 0
-449 0
-453 0
-446 0
-450 0
-443 0
-447 0
-440 0
-444 0
-437 0
-441 0
-434 0
-438 0
-431 0
-435 0
-428 0
-432 0
-425 0
-429 0
-422 0
-426 0
-419 0
-423 0
-416 0
-420 0
-413 0
-417 0
-410 0
-414 0
-407 0
-411 0
-404 0
-408 0
-401 0
-405 0
-398 0
-402 0
-395 0
-399 0
-392 0
-396 0
-389 0
-393 0
-386 0
-390 0
-383 0
-387 0
-380 0
-384 0
-377 0
-381 0
-374 0
-378 0
-371 0
-375 0
-368 0
-372 0
-365 0
-369 0
-362 0
-366 0
-359 0
-363 0
-356 0
-360 0
-353 0
-357 0
-350 0
-354 0
-347 0
-351 0
-344 0
-348 0
-341 0
-345 0
-338 0
-342 0
-335 0
-339 0
-332 0
-336 0
-329 0
-333 0
-326 0
-330 0
-323 0
-327 0
-320 0
-324 0
-317 0
-321 0
-314 0
-318 0
-311 0
-315 0
-308 0
-312 0
-305 0
-309 0
-302 0
-306 0
-299 0
-303 0
-296 0
-300 0
-293 0
-297 0
-290 0
-294 0
-287 0
-291 0
-284 0
-288 0
-281 0
-285 0
-278 0
-282 0
-275 0
-279 0
-272 0
-276 0
-269 0
-273 0
-263 0
-270 0
